p cnf 13 21
13 12 9 0
-13 -12 -9 0
13 11 -5 0
13 10 -2 0
-13 8 -3 0
12 -11 10 0
-12 10 5 0
-12 4 2 0
12 4 1 0
12 -4 1 0
11 -10 3 0
-11 9 -6 0
11 -9 5 0
11 6 2 0
10 9 5 0
9 7 -2 0
-9 5 4 0
9 -5 4 0
8 -6 -5 0
8 -4 3 0
-7 4 3 0
